96 16
31 41
36 7
25 123
76 50
30 16
56 30
7 170
36 65
28 72
46 25
51 32
26 100
16 185
29 133
6 50
70 16
8 116
64 31
25 73
28 162
45 48
14 78
97 23
26 35
81 4
43 61
18 39
69 29
20 53
42 111
76 59
52 63
86 61
32 19
39 15
4 124
3 13
9 61
63 60
24 81
8 103
70 40
27 33
31 110
2 62
4 64
24 40
4 134
79 74
